35552
0 1 1 0 1 0 0 0 0 0 1 1 0 0 0 1 0 0 1 1 0 0 0 0 0 1 0 0 1 0 
18 19 2 18 2 11 15 28 18 28 4 28 10 1 28 18 1 10 18 28 18 15 2 2 10 18 18 19 4 2 19 19 4 15 28 19 10 10 15 15 18 10 19 4 10 19 10 15 19 19 2 15 2 15 10 19 11 4 18 25 4 28 18 10 1 11 2 19 28 25 18 11 19 19 10 1 10 10 10 2 10 2 19 25 4 10 19 2 18 25 28 19 25 25 2 1 11 11 2 28 28 15 25 18 4 2 4 2 18 1 19 4 18 11 11 10 28 25 28 1 19 11 28 19 4 15 2 11 19 28 28 2 25 10 1 19 1 1 28 10 11 18 11 11 25 2 15 15 18 25 2 28 1 28 1 11 2 15 1 1 1 28 10 2 10 18 1 4 1 15 1 10 19 19 4 2 28 10 4 10 2 15 2 19 11 10 28 10 28 15 2 2 19 4 25 11 25 15 10 19 
